proyfinal/src/viki/013/experimentInOfficeAgust.take6.output/f0f55112-fb67-4ae4-b737-610eb54c3f7b.als.out
Reading from standard input... Use '--help' for help.
============================[ Problem Statistics ]=============================
|                                                                             |
|  Number of variables:         87638                                         |
|  Number of clauses:          161767                                         |
|  Parse time:                   0.04 s                                       |
|                                                                             |
============================[ Search Statistics ]==============================
| Conflicts |          ORIGINAL         |          LEARNT          | Progress |
|           |    Vars  Clauses Literals |    Limit  Clauses Lit/Cl |          |
===============================================================================
|       100 |   62862   107034   267611 |    39245      100     24 | 28.271 % |
|       250 |   43683    50782   129723 |    43170      243     47 | 50.155 % |
|       475 |   43679    50724   129593 |    47487      465     34 | 50.160 % |
|       812 |   43679    50724   129593 |    52236      802     27 | 50.160 % |
|      1318 |   43657    50634   129412 |    57459     1303     25 | 50.185 % |
|      2077 |   43620    50477   129024 |    63205     1921     23 | 50.227 % |
===============================================================================
restarts              : 15
conflicts             : 2950           (12740 /sec)
decisions             : 10601          (0.00 % random) (45780 /sec)
propagations          : 3502789        (15126721 /sec)
conflict literals     : 65367          (32.88 % deleted)
Memory used           : 20.02 MB
CPU time              : 0.231563 s

UNSATISFIABLE
